NAME: random-39-2596
TYPE: TSP
COMMENT: size=39 seed=2596
DIMENSION: 80
EDGE_WEIGHT_TYPE: EUC_2D
NODE_COORD_SECTION
+0 972 777
-0 972 777
+1 479 616
-1 290 274
+2 447 942
-2 475 184
+3 653 449
-3 966 163
+4 818 191
-4 875 821
+5 887 770
-5 948 67
+6 948 619
-6 18 729
+7 223 120
-7 951 530
+8 545 551
-8 990 24
+9 110 743
-9 0 960
+10 605 662
-10 456 371
+11 983 384
-11 455 724
+12 195 368
-12 713 908
+13 769 313
-13 124 536
+14 390 306
-14 960 609
+15 156 13
-15 224 588
+16 429 934
-16 862 123
+17 268 491
-17 155 617
+18 267 64
-18 915 509
+19 574 346
-19 828 371
+20 137 749
-20 357 407
+21 441 22
-21 163 483
+22 478 626
-22 613 943
+23 563 868
-23 694 524
+24 93 804
-24 795 358
+25 678 154
-25 101 574
+26 499 220
-26 791 617
+27 835 566
-27 404 202
+28 987 436
-28 26 913
+29 774 660
-29 743 866
+30 268 308
-30 495 243
+31 777 154
-31 550 446
+32 133 224
-32 38 816
+33 542 896
-33 485 434
+34 61 198
-34 888 831
+35 83 716
-35 227 524
+36 992 373
-36 344 182
+37 522 180
-37 324 143
+38 51 978
-38 868 357
+39 28 530
-39 769 748
PRECEDENCE_SECTION
+0 -0
+1 -1
+2 -2
+3 -3
+4 -4
+5 -5
+6 -6
+7 -7
+8 -8
+9 -9
+10 -10
+11 -11
+12 -12
+13 -13
+14 -14
+15 -15
+16 -16
+17 -17
+18 -18
+19 -19
+20 -20
+21 -21
+22 -22
+23 -23
+24 -24
+25 -25
+26 -26
+27 -27
+28 -28
+29 -29
+30 -30
+31 -31
+32 -32
+33 -33
+34 -34
+35 -35
+36 -36
+37 -37
+38 -38
+39 -39
EOF
